
Log started (V12.10.0.0) Fri Apr  9 01:46:13 2021


Problem 'asset.lp' read.
Read time = 0.01 sec. (0.23 ticks)
New value for default parallel thread count: 1
New value for time limit in seconds: 150
Version identifier: 12.10.0.0 | 2019-11-26 | 843d4de
CPXPARAM_Threads                                 1
CPXPARAM_TimeLimit                               150
Found incumbent of value 0.000000 after 0.00 sec. (0.06 ticks)
Tried aggregator 3 times.
MIP Presolve eliminated 789 rows and 391 columns.
MIP Presolve modified 1856 coefficients.
Aggregator did 670 substitutions.
Reduced MIP has 722 rows, 911 columns, and 3903 nonzeros.
Reduced MIP has 827 binaries, 52 generals, 0 SOSs, and 0 indicators.
Presolve time = 0.01 sec. (8.03 ticks)
Probing fixed 67 vars, tightened 7 bounds.
Probing time = 0.01 sec. (4.32 ticks)
Cover probing fixed 0 vars, tightened 37 bounds.
Tried aggregator 1 time.
Detecting symmetries...
MIP Presolve eliminated 83 rows and 81 columns.
MIP Presolve modified 268 coefficients.
Reduced MIP has 639 rows, 830 columns, and 3441 nonzeros.
Reduced MIP has 753 binaries, 45 generals, 0 SOSs, and 0 indicators.
Presolve time = 0.00 sec. (2.34 ticks)
Probing time = 0.00 sec. (2.57 ticks)
Cover probing fixed 0 vars, tightened 2 bounds.
Clique table members: 2214.
Tightened 2 constraints.
MIP emphasis: balance optimality and feasibility.
MIP search method: dynamic search.
Parallel mode: none, using 1 thread.
Root relaxation solution time = 0.01 sec. (10.56 ticks)

        Nodes                                         Cuts/
   Node  Left     Objective  IInf  Best Integer    Best Bound    ItCnt     Gap

*     0+    0                            0.0000      176.0000              --- 
      0     0      148.4506   141        0.0000      148.4506      449     --- 
      0     0      144.1132   141        0.0000     Cuts: 259      654     --- 
      0     0      141.3582   141        0.0000     Cuts: 259     1021     --- 
      0     0      140.4349   141        0.0000     Cuts: 205     1181     --- 
      0     0      140.0527   141        0.0000     Cuts: 161     1313     --- 
      0     0      139.9252   141        0.0000     Cuts: 102     1402     --- 
Detecting symmetries...
      0     0      139.5713   141        0.0000     Cuts: 119     1563     --- 
      0     0      139.2424   141        0.0000     Cuts: 142     1645     --- 
      0     0      138.8704   141        0.0000     Cuts: 135     1807     --- 
      0     0      138.6902   141        0.0000     Cuts: 218     1967     --- 
      0     0      138.6340   141        0.0000      Cuts: 95     2100     --- 
      0     0      138.6055   141        0.0000     Cuts: 101     2161     --- 
      0     0      138.5630   141        0.0000      Cuts: 82     2296     --- 
      0     0      138.5468   141        0.0000     Cuts: 111     2425     --- 
      0     0      138.4775   141        0.0000      Cuts: 32     2563     --- 
      0     0      138.4387   141        0.0000     Cuts: 155     2789     --- 
      0     0      138.4355   141        0.0000     Cuts: 122     2967     --- 
*     0+    0                           52.0000      138.4355           166.22%
*     0+    0                           66.0000      138.4355           109.75%
*     0+    0                           68.0000      138.4355           103.58%
      0     0        cutoff             68.0000      138.4355     2967  103.58%
Detecting symmetries...
      0     2      138.4355   158       68.0000      138.4330     2967  103.58%
Elapsed time = 0.34 sec. (343.93 ticks, tree = 0.01 MB, solutions = 3)
*    55    50      integral     0       96.0000      138.2186     5773   43.98%
    111    94      136.7742   116       96.0000      138.0610     9335   43.81%
    319   294      129.5383   102       96.0000      137.5897    16205   43.32%
    449   392      129.4951   132       96.0000      137.5734    22675   43.31%

Performing restart 1

Repeating presolve.
Tried aggregator 2 times.
MIP Presolve eliminated 3 rows and 0 columns.
MIP Presolve modified 793 coefficients.
Aggregator did 3 substitutions.
Reduced MIP has 633 rows, 827 columns, and 2860 nonzeros.
Reduced MIP has 750 binaries, 45 generals, 0 SOSs, and 0 indicators.
Presolve time = 0.00 sec. (3.85 ticks)
Tried aggregator 1 time.
Reduced MIP has 633 rows, 827 columns, and 2860 nonzeros.
Reduced MIP has 750 binaries, 45 generals, 0 SOSs, and 0 indicators.
Presolve time = 0.00 sec. (2.20 ticks)
Represolve time = 0.02 sec. (16.08 ticks)
    493     0      128.4466   176       96.0000     Cuts: 258    25019   33.80%
    493     0      125.0043   176       96.0000     Cuts: 211    25387   30.21%
    493     0      123.0450   176       96.0000     Cuts: 159    26098   28.17%
    493     0      121.2991   176       96.0000     Cuts: 170    26300   26.35%
    493     0      120.9045   176       96.0000     Cuts: 118    26531   25.94%
    493     0      120.3468   176       96.0000     Cuts: 131    27182   25.36%
    493     0      120.0294   176       96.0000     Cuts: 158    27962   25.03%
    493     0      119.8412   176       96.0000     Cuts: 151    28194   24.83%
    493     0      119.7500   176       96.0000     Cuts: 139    28415   24.74%
    493     0      119.7500   176       96.0000     Cuts: 102    28550   24.74%
    493     0      119.7068   176       96.0000      Cuts: 53    28721   24.69%
    493     0      119.6171   176       96.0000      Cuts: 79    28840   24.60%
    493     0      119.5460   176       96.0000      Cuts: 85    28967   24.53%
    493     0      119.4397   176       96.0000      Cuts: 80    29163   24.42%
    493     0      119.2971   176       96.0000      Cuts: 79    29395   24.27%
    493     0      119.1667   176       96.0000     Cuts: 122    29635   24.13%
    493     0      119.1016   176       96.0000     Cuts: 116    30000   24.06%
    493     0      119.0282   176       96.0000      Cuts: 74    30175   23.99%
    493     0      118.9644   176       96.0000     Cuts: 108    30333   23.92%
    493     0      118.9000   176       96.0000      Cuts: 91    30447   23.85%
    493     0      118.9000   176       96.0000      Cuts: 96    30582   23.85%
    493     0      118.8984   176       96.0000      Cuts: 48    30763   23.85%
    493     0      118.8889   176       96.0000      Cuts: 56    30899   23.84%
    493     2      118.8889   120       96.0000      118.8889    30899   23.84%
    496     5      118.7238   119       96.0000      118.6545    31886   23.60%
    500     9      113.8284    80       96.0000      118.1217    33549   23.04%
    505    14      116.0000   103       96.0000      118.1217    34922   23.04%
    529    37      105.9690    76       96.0000      118.1217    36868   23.04%
    647   111      116.0000   103       96.0000      117.5866    40077   22.49%
*   833+  238                           98.0000      116.6555            19.04%
   1018   392      107.2626    90       98.0000      116.0000    53597   18.37%
Elapsed time = 4.78 sec. (5745.80 ticks, tree = 0.24 MB, solutions = 5)
   1548   819      107.0000    60       98.0000      115.0000    72519   17.35%
*  1947  1028      integral     0      100.0000      114.6718    88179   14.67%
   2013  1083      112.5000    81      100.0000      114.4066    92209   14.41%
*  2047+  914                          102.0000      114.4066            12.16%
*  2292   815      integral     0      104.0000      113.8260   105817    9.45%
   2341   850      111.0000    94      104.0000      113.7542   107965    9.38%
   2591   997      108.9669   119      104.0000      113.2974   123187    8.94%
   2859  1153      112.0000   114      104.0000      113.0000   138509    8.65%
   3139  1325      103.3275    90      104.0000      112.5592   155236    8.23%
   3428  1483        cutoff            104.0000      112.0000   174057    7.69%
   3799  1760      108.0000    87      104.0000      112.0000   190767    7.69%
   3990  1851      107.0000    59      104.0000      111.7289   204772    7.43%
   4290  2007      108.0000    45      104.0000      111.2224   219471    6.94%
Elapsed time = 12.88 sec. (15338.97 ticks, tree = 1.43 MB, solutions = 8)
   4643  2211      111.0000   115      104.0000      111.0000   233935    6.73%
   4906  2308      106.0000    40      104.0000      110.6667   250168    6.41%
   5270  2446      106.0000    57      104.0000      110.0739   267182    5.84%
   5604  2637      107.0000    67      104.0000      110.0000   283330    5.77%
   5825  2729    infeasible            104.0000      109.9518   298076    5.72%
   6123  2877      106.0000    76      104.0000      109.5994   311750    5.38%
   6418  2979      107.0000    81      104.0000      109.1957   326851    5.00%
   6794  3159      106.0000    50      104.0000      109.0000   342491    4.81%
   7086  3206      106.0000    45      104.0000      108.7238   357485    4.54%
   7518  3410      108.0000    60      104.0000      108.3104   373816    4.14%
Elapsed time = 21.13 sec. (24932.89 ticks, tree = 2.51 MB, solutions = 8)
   7833  3491      107.0000    36      104.0000      108.0000   388904    3.85%
*  8053+  785                          106.0000      108.0000             1.89%
   8179   723        cutoff            106.0000      108.0000   405831    1.89%
   8546   657      108.0000    60      106.0000      108.0000   422331    1.89%
   8942   545      108.0000    41      106.0000      108.0000   438420    1.89%
   9350   456      108.0000    57      106.0000      108.0000   455837    1.89%
   9799   335      108.0000    74      106.0000      108.0000   473756    1.89%
  10281   249        cutoff            106.0000      108.0000   492937    1.89%
  10729   208        cutoff            106.0000      108.0000   510154    1.89%
  11170   165      108.0000    65      106.0000      108.0000   529040    1.89%
  11741   131      108.0000    59      106.0000      108.0000   549361    1.89%
Elapsed time = 29.72 sec. (34503.78 ticks, tree = 0.25 MB, solutions = 9)
  12206    89      108.0000    49      106.0000      108.0000   568775    1.89%
  12698    47        cutoff            106.0000      108.0000   586548    1.89%

GUB cover cuts applied:  95
Clique cuts applied:  58
Cover cuts applied:  45
Implied bound cuts applied:  64
Flow cuts applied:  10
Mixed integer rounding cuts applied:  114
Zero-half cuts applied:  62
Lift and project cuts applied:  7
Gomory fractional cuts applied:  2

Root node processing (before b&c):
  Real time             =    0.34 sec. (344.09 ticks)
Sequential b&c:
  Real time             =   31.49 sec. (36559.13 ticks)
                          ------------
Total (root+branch&cut) =   31.83 sec. (36903.23 ticks)

Solution pool: 10 solutions saved.

MIP - Integer optimal solution:  Objective =  1.0600000000e+02
Solution time =   31.83 sec.  Iterations = 595478  Nodes = 12950
Deterministic time = 36903.24 ticks  (1159.41 ticks/sec)


Incumbent solution
Variable Name           Solution Value
F                           106.000000
y2                            1.000000
y6                            1.000000
y7                            1.000000
y10                           1.000000
y17                           1.000000
y42                           1.000000
y43                           1.000000
y48                           1.000000
y50                           1.000000
y53                           1.000000
y66                           1.000000
y72                           1.000000
y103                          1.000000
y105                          1.000000
y118                          1.000000
y145                          1.000000
y147                          1.000000
y156                          1.000000
y164                          1.000000
x8x118x1                      1.000000
x14x118x1                     1.000000
x67x103x1                     1.000000
x88x156x1                     1.000000
x122x43x1                     1.000000
x122x50x1                     1.000000
x142x43x1                     1.000000
x5x66x2                       1.000000
x8x53x2                       1.000000
x36x53x2                      1.000000
x76x156x2                     1.000000
x88x10x2                      1.000000
x150x17x2                     1.000000
x150x103x2                    1.000000
x5x50x3                       1.000000
x67x66x3                      1.000000
x76x10x3                      1.000000
x142x17x3                     1.000000
x10x2x2                       1.000000
x2x0x2                        1.000000
x66x2x3                       1.000000
x2x0x3                        1.000000
x43x6x1                       1.000000
x103x6x1                      1.000000
x6x0x1                        2.000000
x53x7x2                       2.000000
x7x164x2                      2.000000
x10x145x3                     1.000000
x17x145x2                     1.000000
x17x147x3                     1.000000
x66x42x2                      1.000000
x103x42x2                     1.000000
x42x0x2                       2.000000
x43x147x1                     1.000000
x118x48x1                     2.000000
x48x0x1                       2.000000
x50x105x1                     1.000000
x50x105x3                     1.000000
x156x72x1                     1.000000
x72x0x1                       1.000000
x156x72x2                     1.000000
x72x0x2                       1.000000
x105x0x1                      1.000000
x105x0x3                      1.000000
x145x0x2                      1.000000
x145x0x3                      1.000000
x147x0x1                      1.000000
x147x0x3                      1.000000
x164x0x2                      2.000000
s5                            5.328758
s2                            9.110000
s4                            8.700000
s7                            8.136666
z5z7z2                        1.000000
s10                           6.978985
s12                           6.900000
s17                           7.354875
s32                           6.880000
s33                           7.120000
s35                           9.200000
s37                           8.130000
s42                           9.010000
z5z42z2                       1.000000
s50                           7.214207
z5z50z3                       1.000000
s53                           6.690000
s55                           6.940000
s66                           7.471502
z5z66z2                       1.000000
s69                           9.010000
z5z69z2                       1.000000
s70                           8.960000
s72                           8.150000
s77                           6.470000
s78                           8.940000
z5z78z3                       1.000000
s81                           8.014547
s90                           7.090000
s103                          7.441031
s105                          8.480000
s130                          7.080000
s145                          8.554986
s147                          8.510000
s148                          7.580000
z5z148z3                      1.000000
s156                          7.105606
s164                          9.330000
z5z164z2                      1.000000
s8                            5.253469
s6                            9.310000
z8z6z1                        1.000000
z8z7z2                        1.000000
z8z42z2                       1.000000
s43                           7.149013
s48                           7.775997
z8z48z1                       1.000000
z8z53z2                       1.000000
s64                           6.030000
z8z69z2                       1.000000
s118                          6.710000
z8z118z1                      1.000000
s124                          6.773963
s137                          6.755741
z8z164z2                      1.000000
s167                          6.000000
s14                           3.561772
z14z6z1                       1.000000
z14z43z1                      1.000000
z14z48z1                      1.000000
s108                          6.000000
z14z118z1                     1.000000
s16                           6.000000
s36                           3.954287
z36z7z2                       1.000000
z36z42z2                      1.000000
z36z53z2                      1.000000
z36z69z2                      1.000000
z36z164z2                     1.000000
s166                          6.000000
s67                           5.997680
z67z6z1                       1.000000
z67z66z3                      1.000000
z67z78z3                      1.000000
z67z103z1                     1.000000
z67z148z3                     1.000000
s76                           5.580315
z76z7z2                       1.000000
z76z10z3                      1.000000
z76z33z3                      1.000000
z76z42z2                      1.000000
z76z69z2                      1.000000
z76z78z3                      1.000000
z76z90z3                      1.000000
s125                          6.000000
z76z148z3                     1.000000
z76z156z2                     1.000000
z76z164z2                     1.000000
s88                           5.177545
z88z6z1                       1.000000
z88z7z2                       1.000000
z88z10z2                      1.000000
z88z42z2                      1.000000
z88z69z2                      1.000000
z88z156z1                     1.000000
z88z164z2                     1.000000
s122                          5.784495
z122z6z1                      1.000000
z122z43z1                     1.000000
z122z50z1                     1.000000
z124z6z1                      1.000000
z124z42z2                     1.000000
z124z164z2                    1.000000
s142                          5.804633
z142z6z1                      1.000000
z142z17z3                     1.000000
z142z43z1                     1.000000
z142z78z3                     1.000000
z142z148z3                    1.000000
s150                          5.978394
z150z7z2                      1.000000
z150z17z2                     1.000000
z150z42z2                     1.000000
z150z69z2                     1.000000
z150z103z2                    1.000000
z150z164z2                    1.000000
z7z164z2                      1.000000
z10z2z2                       1.000000
z10z42z2                      1.000000
z10z145z3                     1.000000
z10z164z2                     1.000000
z12z78z3                      1.000000
z17z145z2                     1.000000
z17z147z3                     1.000000
z43z6z1                       1.000000
z43z147z1                     1.000000
z50z105z1                     1.000000
z50z105z3                     1.000000
z53z7z2                       1.000000
z53z42z2                      1.000000
z53z69z2                      1.000000
z53z164z2                     1.000000
z64z6z1                       1.000000
z66z2z3                       1.000000
z66z42z2                      1.000000
z103z6z1                      1.000000
z103z42z2                     1.000000
z108z6z1                      1.000000
z118z6z1                      1.000000
z118z48z1                     1.000000
z137z42z2                     1.000000
z137z164z2                    1.000000
z156z72z1                     1.000000
z156z72z2                     1.000000
z166z7z2                      1.000000
z166z42z2                     1.000000
z166z164z2                    1.000000
z167z42z2                     1.000000
z167z164z2                    1.000000
All other variables in the range 1-1975 are 0.
